NAME : 10_3_3_3_(40).dat
COMMENT : Henke, Speranza, Wäscher, 2015
TYPE : MCVRP
DIMENSION : 11
EDGE_WEIGHT_TYPE : DISTANCE_MATRIX
CAPACITY : 1000
VEHICLES : 3
PRODUCT TYPES : 3
COMPARTMENTS : 3
NODE_COORD_SECTION
1 50 50
2 82.95 12.86
3 53.5 34.68
4 47.75 43.25
5 13.74 28.72
6 97.37 52.59
7 44.58 59.33
8 43.36 90.2
9 43.79 36.54
10 4.95 14.47
11 58.35 78.63
DEMAND_SECTION
1 0 0 0
2 13 3 29
3 97 15 40
4 100 63 16
5 87 79 48
6 69 50 32
7 57 37 52
8 78 73 22
9 71 65 1
10 101 47 29
11 112 40 44
DEPOT_SECTION
1
EOF